r = [
0,28,38,29,14,11,29,29,28,21,23,36,24,3,12,16,9,5,30,13,17,36,31,36,27,21,0
];
p = [
0,2,22,28,21,19,13,24,27,23,11,9,9,9,14,14,23,15,21,17,8,30,26,1,7,6,0
];
e = [
0,8,19,19,5,20,19,1,16,20,7,5,14,15,18,19,1,11,17,9,14,17,11,18,16,13,0
];
d = [
0,504,336,284,332,303,254,369,265,460,421,229,289,468,306,493,373,224,409,394,231,387,384,524,323,506,525
];
d_bar = [
0,506,356,309,351,320,266,391,289,481,431,237,297,476,319,506,394,238,428,409,238,414,407,525,329,511,525
];
w = [
0,4,0.95,0.76,0.263157895,1.176470588,1.583333333,0.045454545,0.666666667,0.952380952,0.7,0.625,1.75,1.875,1.384615385,1.461538462,0.047619048,0.785714286,0.894736842,0.6,2,0.62962963,0.47826087,18,2.666666667,2.6,0
];
